;symbolic execution tree
(push)
(assert (le x0 java.lang.Object))
(check-sat)
(push)
(assert (le x0 soot.MethodSource))
(check-sat)
(push)
(assert (le x0 soot.MethodSource))
(check-sat)
(pop)
(push)
(assert (not (le x0 soot.MethodSource)))
(check-sat)
(push)
(assert (le x0 soot.MethodSource))
(check-sat)
(pop)
(push)
(assert (not (le x0 soot.MethodSource)))
(check-sat)
(pop)
(pop)
(push)
(assert (le x0 soot.MethodSource))
(check-sat)
(push)
(assert (le x0 soot.MethodSource))
(check-sat)
(push)
(assert (le x0 soot.MethodSource))
(check-sat)
(pop)
(push)
(assert (not (le x0 soot.MethodSource)))
(check-sat)
(pop)
(push)
(assert (le x0 soot.MethodSource))
(check-sat)
(pop)
(push)
(assert (not (le x0 soot.MethodSource)))
(check-sat)
(pop)
(pop)
(push)
(assert (not (le x0 soot.MethodSource)))
(check-sat)
(push)
(assert (le x0 soot.MethodSource))
(check-sat)
(pop)
(push)
(assert (not (le x0 soot.MethodSource)))
(check-sat)
(push)
(assert (le x0 soot.MethodSource))
(check-sat)
(pop)
(push)
(assert (not (le x0 soot.MethodSource)))
(check-sat)
(pop)
(pop)
(pop)
(push)
(assert (le x0 soot.MethodSource))
(check-sat)
(pop)
(push)
(assert (not (le x0 soot.MethodSource)))
(check-sat)
(pop)
(pop)
(push)
(assert (not (le x0 soot.MethodSource)))
(check-sat)
(pop)
(push)
(assert (le x0 soot.MethodSource))
(check-sat)
(pop)
(push)
(assert (not (le x0 soot.MethodSource)))
(check-sat)
(push)
(assert (le x0 soot.MethodSource))
(check-sat)
(pop)
(push)
(assert (not (le x0 soot.MethodSource)))
(check-sat)
(push)
(assert (le x0 soot.MethodSource))
(check-sat)
(pop)
(push)
(assert (not (le x0 soot.MethodSource)))
(check-sat)
(pop)
(pop)
(push)
(assert (le x0 soot.MethodSource))
(check-sat)
(pop)
(push)
(assert (not (le x0 soot.MethodSource)))
(check-sat)
(pop)
(push)
(assert (le x0 soot.MethodSource))
(check-sat)
(push)
(assert (le x0 soot.MethodSource))
(check-sat)
(push)
(assert (le x0 soot.MethodSource))
(check-sat)
(pop)
(push)
(assert (not (le x0 soot.MethodSource)))
(check-sat)
(pop)
(pop)
(push)
(assert (not (le x0 soot.MethodSource)))
(check-sat)
(pop)
(pop)
(push)
(assert (not (le x0 soot.MethodSource)))
(check-sat)
(pop)
(pop)
(push)
(assert (le x0 soot.MethodSource))
(check-sat)
(pop)
(push)
(assert (not (le x0 soot.MethodSource)))
(check-sat)
(push)
(assert (le x0 soot.MethodSource))
(check-sat)
(pop)
(push)
(assert (not (le x0 soot.MethodSource)))
(check-sat)
(pop)
(pop)
(push)
(assert (le x0 soot.MethodSource))
(check-sat)
(push)
(assert (le x0 soot.MethodSource))
(check-sat)
(pop)
(push)
(assert (not (le x0 soot.MethodSource)))
(check-sat)
(push)
(assert (le x0 soot.MethodSource))
(check-sat)
(pop)
(push)
(assert (not (le x0 soot.MethodSource)))
(check-sat)
(pop)
(push)
(assert (le x0 soot.MethodSource))
(check-sat)
(pop)
(push)
(assert (not (le x0 soot.MethodSource)))
(check-sat)
(pop)
(push)
(assert (le x0 soot.MethodSource))
(check-sat)
(pop)
(push)
(assert (not (le x0 soot.MethodSource)))
(check-sat)
(pop)
(pop)
(push)
(assert (le x0 soot.MethodSource))
(check-sat)
(push)
(assert (le x0 soot.MethodSource))
(check-sat)
(push)
(assert (le x0 soot.MethodSource))
(check-sat)
(pop)
(push)
(assert (not (le x0 soot.MethodSource)))
(check-sat)
(pop)
(pop)
(push)
(assert (not (le x0 soot.MethodSource)))
(check-sat)
(push)
(assert (le x0 soot.MethodSource))
(check-sat)
(pop)
(push)
(assert (not (le x0 soot.MethodSource)))
(check-sat)
(pop)
(pop)
(push)
(assert (le x0 soot.MethodSource))
(check-sat)
(push)
(assert (le x0 soot.MethodSource))
(check-sat)
(pop)
(push)
(assert (not (le x0 soot.MethodSource)))
(check-sat)
(pop)
(push)
(assert (le x0 soot.MethodSource))
(check-sat)
(pop)
(push)
(assert (not (le x0 soot.MethodSource)))
(check-sat)
(pop)
(push)
(assert (le x0 soot.MethodSource))
(check-sat)
(pop)
(push)
(assert (not (le x0 soot.MethodSource)))
(check-sat)
(pop)
(pop)
(push)
(assert (not (le x0 soot.MethodSource)))
(check-sat)
(pop)
(push)
(assert (le x0 soot.MethodSource))
(check-sat)
(pop)
(push)
(assert (not (le x0 soot.MethodSource)))
(check-sat)
(pop)
(pop)
(push)
(assert (not (le x0 soot.MethodSource)))
(check-sat)
(pop)
(pop)
(push)
(assert (not (le x0 soot.MethodSource)))
(check-sat)
(push)
(assert (le x0 soot.MethodSource))
(check-sat)
(push)
(assert (le x0 soot.MethodSource))
(check-sat)
(pop)
(push)
(assert (not (le x0 soot.MethodSource)))
(check-sat)
(pop)
(push)
(assert (le x0 soot.MethodSource))
(check-sat)
(pop)
(push)
(assert (not (le x0 soot.MethodSource)))
(check-sat)
(pop)
(pop)
(push)
(assert (not (le x0 soot.MethodSource)))
(check-sat)
(push)
(assert (le x0 soot.MethodSource))
(check-sat)
(push)
(assert (le x0 soot.MethodSource))
(check-sat)
(pop)
(push)
(assert (not (le x0 soot.MethodSource)))
(check-sat)
(pop)
(pop)
(push)
(assert (not (le x0 soot.MethodSource)))
(check-sat)
(pop)
(push)
(assert (le x0 soot.MethodSource))
(check-sat)
(pop)
(push)
(assert (not (le x0 soot.MethodSource)))
(check-sat)
(pop)
(pop)
(push)
(assert (le x0 soot.MethodSource))
(check-sat)
(pop)
(push)
(assert (not (le x0 soot.MethodSource)))
(check-sat)
(push)
(assert (le x0 soot.MethodSource))
(check-sat)
(pop)
(push)
(assert (not (le x0 soot.MethodSource)))
(check-sat)
(push)
(assert (le x0 soot.MethodSource))
(check-sat)
(pop)
(push)
(assert (not (le x0 soot.MethodSource)))
(check-sat)
(pop)
(pop)
(pop)
(pop)
(push)
(assert (le x0 soot.MethodSource))
(check-sat)
(pop)
(push)
(assert (not (le x0 soot.MethodSource)))
(check-sat)
(push)
(assert (le x0 soot.MethodSource))
(check-sat)
(pop)
(push)
(assert (not (le x0 soot.MethodSource)))
(check-sat)
(pop)
(pop)
(push)
(assert (le x0 soot.MethodSource))
(check-sat)
(push)
(assert (le x0 soot.MethodSource))
(check-sat)
(push)
(assert (le x0 soot.MethodSource))
(check-sat)
(pop)
(push)
(assert (not (le x0 soot.MethodSource)))
(check-sat)
(pop)
(pop)
(push)
(assert (not (le x0 soot.MethodSource)))
(check-sat)
(push)
(assert (le x0 soot.MethodSource))
(check-sat)
(push)
(assert (le x0 soot.MethodSource))
(check-sat)
(pop)
(push)
(assert (not (le x0 soot.MethodSource)))
(check-sat)
(pop)
(push)
(assert (le x0 soot.MethodSource))
(check-sat)
(pop)
(push)
(assert (not (le x0 soot.MethodSource)))
(check-sat)
(pop)
(pop)
(push)
(assert (not (le x0 soot.MethodSource)))
(check-sat)
(push)
(assert (le x0 soot.MethodSource))
(check-sat)
(pop)
(push)
(assert (not (le x0 soot.MethodSource)))
(check-sat)
(pop)
(pop)
(pop)
(push)
(assert (le x0 soot.MethodSource))
(check-sat)
(pop)
(push)
(assert (not (le x0 soot.MethodSource)))
(check-sat)
(pop)
(pop)
(push)
(assert (not (le x0 soot.MethodSource)))
(check-sat)
(push)
(assert (le x0 soot.MethodSource))
(check-sat)
(push)
(assert (le x0 soot.MethodSource))
(check-sat)
(pop)
(push)
(assert (not (le x0 soot.MethodSource)))
(check-sat)
(pop)
(pop)
(push)
(assert (not (le x0 soot.MethodSource)))
(check-sat)
(push)
(assert (le x0 soot.MethodSource))
(check-sat)
(pop)
(push)
(assert (not (le x0 soot.MethodSource)))
(check-sat)
(pop)
(pop)
(pop)
(push)
(assert (le x0 soot.MethodSource))
(check-sat)
(pop)
(push)
(assert (not (le x0 soot.MethodSource)))
(check-sat)
(push)
(assert (le x0 soot.MethodSource))
(check-sat)
(push)
(assert (le x0 soot.MethodSource))
(check-sat)
(pop)
(push)
(assert (not (le x0 soot.MethodSource)))
(check-sat)
(pop)
(pop)
(push)
(assert (not (le x0 soot.MethodSource)))
(check-sat)
(pop)
(push)
(assert (le x0 soot.MethodSource))
(check-sat)
(pop)
(push)
(assert (not (le x0 soot.MethodSource)))
(check-sat)
(pop)
(push)
(assert (le x0 soot.MethodSource))
(check-sat)
(push)
(assert (le x0 soot.MethodSource))
(check-sat)
(pop)
(push)
(assert (not (le x0 soot.MethodSource)))
(check-sat)
(pop)
(pop)
(push)
(assert (not (le x0 soot.MethodSource)))
(check-sat)
(push)
(assert (le x0 soot.MethodSource))
(check-sat)
(push)
(assert (le x0 soot.MethodSource))
(check-sat)
(pop)
(push)
(assert (not (le x0 soot.MethodSource)))
(check-sat)
(pop)
(pop)
(push)
(assert (not (le x0 soot.MethodSource)))
(check-sat)
(pop)
(push)
(assert (le x0 soot.MethodSource))
(check-sat)
(pop)
(push)
(assert (not (le x0 soot.MethodSource)))
(check-sat)
(push)
(assert (le x0 soot.MethodSource))
(check-sat)
(pop)
(push)
(assert (not (le x0 soot.MethodSource)))
(check-sat)
(pop)
(pop)
(push)
(assert (le x0 soot.MethodSource))
(check-sat)
(push)
(assert (le x0 soot.MethodSource))
(check-sat)
(pop)
(push)
(assert (not (le x0 soot.MethodSource)))
(check-sat)
(pop)
(pop)
(push)
(assert (not (le x0 soot.MethodSource)))
(check-sat)
(pop)
(pop)
(pop)
(push)
(assert (le x0 soot.MethodSource))
(check-sat)
(push)
(assert (le x0 soot.MethodSource))
(check-sat)
(push)
(assert (le x0 soot.MethodSource))
(check-sat)
(pop)
(push)
(assert (not (le x0 soot.MethodSource)))
(check-sat)
(push)
(assert (le x0 soot.MethodSource))
(check-sat)
(pop)
(push)
(assert (not (le x0 soot.MethodSource)))
(check-sat)
(pop)
(pop)
(pop)
(push)
(assert (not (le x0 soot.MethodSource)))
(check-sat)
(pop)
(pop)
(push)
(assert (not (le x0 soot.MethodSource)))
(check-sat)
(pop)
(push)
(assert (le x0 soot.MethodSource))
(check-sat)
(push)
(assert (le x0 soot.MethodSource))
(check-sat)
(push)
(assert (le x0 soot.MethodSource))
(check-sat)
(pop)
(push)
(assert (not (le x0 soot.MethodSource)))
(check-sat)
(pop)
(pop)
(push)
(assert (not (le x0 soot.MethodSource)))
(check-sat)
(pop)
(pop)
(push)
(assert (not (le x0 soot.MethodSource)))
(check-sat)
(push)
(assert (le x0 soot.MethodSource))
(check-sat)
(pop)
(push)
(assert (not (le x0 soot.MethodSource)))
(check-sat)
(pop)
(push)
(assert (le x0 soot.MethodSource))
(check-sat)
(pop)
(push)
(assert (not (le x0 soot.MethodSource)))
(check-sat)
(pop)
(push)
(assert (le x0 soot.MethodSource))
(check-sat)
(pop)
(push)
(assert (not (le x0 soot.MethodSource)))
(check-sat)
(push)
(assert (le x0 soot.MethodSource))
(check-sat)
(pop)
(push)
(assert (not (le x0 soot.MethodSource)))
(check-sat)
(pop)
(push)
(assert (le x0 soot.MethodSource))
(check-sat)
(pop)
(push)
(assert (not (le x0 soot.MethodSource)))
(check-sat)
(pop)
(pop)
(pop)
(push)
(assert (le x0 soot.MethodSource))
(check-sat)
(pop)
(push)
(assert (not (le x0 soot.MethodSource)))
(check-sat)
(pop)
(pop)
(push)
(assert (not (le x0 soot.MethodSource)))
(check-sat)
(pop)
